; benchmark generated from python API
(set-info :status unknown)
(declare-fun W_S2_V1 () Bool)
(declare-fun W_S2_V3 () Bool)
(declare-fun W_S2_V2 () Bool)
(declare-fun W_S2_V5 () Bool)
(declare-fun W_S1_V1 () Bool)
(declare-fun W_S1_V2 () Bool)
(declare-fun W_S1_V5 () Bool)
(declare-fun W_S1_V4 () Bool)
(declare-fun R_S1_V1 () Bool)
(declare-fun R_S1_V3 () Bool)
(declare-fun R_S1_V2 () Bool)
(declare-fun R_S1_V5 () Bool)
(declare-fun R_S1_V4 () Bool)
(declare-fun R_S2_V1 () Bool)
(declare-fun R_S2_V3 () Bool)
(declare-fun R_S2_V2 () Bool)
(declare-fun R_S2_V5 () Bool)
(declare-fun R_S2_V4 () Bool)
(declare-fun DISJ_W_S2_R_S2 () Bool)
(declare-fun DISJ_W_S2_R_S1 () Bool)
(declare-fun DISJ_W_S1_W_S2 () Bool)
(declare-fun DISJ_W_S1_R_S2 () Bool)
(declare-fun DISJ_W_S1_R_S1 () Bool)
(declare-fun W_S2_V4 () Bool)
(declare-fun W_S1_V3 () Bool)
(assert
 (let (($x870 (forall ((V4_0 Int) )(forall ((V5_0 Int) )(forall ((V2_0 Int) )(forall ((V3_0 Int) )(forall ((V1_0 Int) )(forall ((MW_S1_V4 Bool) )(forall ((MW_S1_V5 Bool) )(forall ((MW_S1_V2 Bool) )(forall ((MW_S1_V3 Bool) )(forall ((MW_S1_V1 Bool) )(forall ((MW_S2_V4 Bool) )(forall ((MW_S2_V5 Bool) )(forall ((MW_S2_V2 Bool) )(forall ((MW_S2_V3 Bool) )(forall ((MW_S2_V1 Bool) )(forall ((S1_V4_!160 Int) )(forall ((S1_V4_!170 Int) )(forall ((S1_V4_!180 Int) )(forall ((S2_V4_!165 Int) )(forall ((S2_V4_!175 Int) )(forall ((S2_V4_!185 Int) )(forall ((S2_V5_!166 Int) )(forall ((S2_V5_!176 Int) )(forall ((S2_V5_!186 Int) )(forall ((S1_V1_!164 Int) )(forall ((S1_V1_!174 Int) )(forall ((S1_V1_!184 Int) )(forall ((S1_V3_!163 Int) )(forall ((S1_V3_!173 Int) )(forall ((S1_V3_!183 Int) )(forall ((S1_V2_!162 Int) )(forall ((S1_V2_!172 Int) )(forall ((S1_V2_!182 Int) )(forall ((S2_V1_!169 Int) )(forall ((S2_V1_!179 Int) )(forall ((S2_V1_!189 Int) )(forall ((S2_V2_!167 Int) )(forall ((S2_V2_!177 Int) )(forall ((S2_V2_!187 Int) )(forall ((S2_V3_!168 Int) )(forall ((S2_V3_!178 Int) )(forall ((S2_V3_!188 Int) )(forall ((S1_V5_!161 Int) )(forall ((S1_V5_!171 Int) )(forall ((S1_V5_!181 Int) )(let ((?x4996 (ite MW_S1_V1 S1_V1_!174 V1_0)))
 (let ((?x5847 (ite MW_S2_V1 S2_V1_!179 ?x4996)))
 (let ((?x5912 (+ 1 ?x5847)))
 (let ((?x1605 (ite MW_S1_V1 S1_V1_!184 ?x5912)))
 (let ((?x3528 (ite MW_S1_V1 S1_V1_!164 V1_0)))
 (let ((?x2012 (ite MW_S2_V1 S2_V1_!169 ?x3528)))
 (let (($x4112 (= (ite MW_S2_V3 S2_V3_!168 (ite MW_S1_V3 S1_V3_!163 V3_0)) (ite MW_S2_V3 S2_V3_!188 (ite MW_S1_V3 S1_V3_!183 (ite MW_S2_V3 S2_V3_!178 (ite MW_S1_V3 S1_V3_!173 V3_0)))))))
 (let ((?x4825 (ite MW_S1_V2 S1_V2_!162 V2_0)))
 (let ((?x625 (ite MW_S2_V2 S2_V2_!167 ?x4825)))
 (let (($x2249 (= ?x625 (ite MW_S2_V2 S2_V2_!187 (ite MW_S1_V2 S1_V2_!182 (ite MW_S2_V2 S2_V2_!177 (ite MW_S1_V2 S1_V2_!172 V2_0)))))))
 (let (($x1912 (= (ite MW_S2_V5 S2_V5_!166 (ite MW_S1_V5 S1_V5_!161 V5_0)) (ite MW_S2_V5 S2_V5_!186 (ite MW_S1_V5 S1_V5_!181 (ite MW_S2_V5 S2_V5_!176 (ite MW_S1_V5 S1_V5_!171 V5_0)))))))
 (let (($x3104 (= (ite MW_S2_V4 S2_V4_!165 (ite MW_S1_V4 S1_V4_!160 V4_0)) (ite MW_S2_V4 S2_V4_!185 (ite MW_S1_V4 S1_V4_!180 (ite MW_S2_V4 S2_V4_!175 (ite MW_S1_V4 S1_V4_!170 V4_0)))))))
 (let (($x3752 (>= ?x1605 (+ (- 1) (ite MW_S1_V2 S1_V2_!182 (ite MW_S2_V2 S2_V2_!177 (ite MW_S1_V2 S1_V2_!172 V2_0)))))))
 (let (($x2903 (and (not (<= V2_0 V1_0)) (>= ?x2012 (+ (- 1) ?x625)) (not (<= (ite MW_S1_V2 S1_V2_!172 V2_0) (+ 1 ?x4996))) $x3752)))
 (let (($x2733 (= S1_V5_!181 S1_V5_!171)))
 (let (($x2130 (and (or (not R_S1_V4) (= (ite MW_S2_V4 S2_V4_!175 (ite MW_S1_V4 S1_V4_!170 V4_0)) V4_0)) (or (not R_S1_V5) (= (ite MW_S2_V5 S2_V5_!176 (ite MW_S1_V5 S1_V5_!171 V5_0)) V5_0)) (or (not R_S1_V2) (= (ite MW_S2_V2 S2_V2_!177 (ite MW_S1_V2 S1_V2_!172 V2_0)) V2_0)) (or (not R_S1_V3) (= (ite MW_S2_V3 S2_V3_!178 (ite MW_S1_V3 S1_V3_!173 V3_0)) V3_0)) (or (not R_S1_V1) (= ?x5847 (+ (- 1) V1_0))))))
 (let (($x2563 (not $x2130)))
 (let (($x1944 (and (or (not R_S1_V4) (= V4_0 (ite MW_S2_V4 S2_V4_!175 (ite MW_S1_V4 S1_V4_!170 V4_0)))) (or (not R_S1_V5) (= V5_0 (ite MW_S2_V5 S2_V5_!176 (ite MW_S1_V5 S1_V5_!171 V5_0)))) (or (not R_S1_V2) (= V2_0 (ite MW_S2_V2 S2_V2_!177 (ite MW_S1_V2 S1_V2_!172 V2_0)))) (or (not R_S1_V3) (= V3_0 (ite MW_S2_V3 S2_V3_!178 (ite MW_S1_V3 S1_V3_!173 V3_0)))) (or (not R_S1_V1) (= V1_0 ?x5912)))))
 (let (($x803 (not $x1944)))
 (let ((?x5420 (ite MW_S1_V3 S1_V3_!163 V3_0)))
 (let ((?x1731 (ite MW_S1_V3 S1_V3_!173 V3_0)))
 (let ((?x2550 (ite MW_S2_V3 S2_V3_!178 ?x1731)))
 (let ((?x1694 (ite MW_S1_V3 S1_V3_!183 ?x2550)))
 (let (($x2233 (not R_S2_V3)))
 (let (($x1769 (not R_S2_V2)))
 (let (($x2038 (or $x1769 (= (ite MW_S1_V2 S1_V2_!182 (ite MW_S2_V2 S2_V2_!177 (ite MW_S1_V2 S1_V2_!172 V2_0))) ?x4825))))
 (let ((?x3377 (ite MW_S1_V5 S1_V5_!161 V5_0)))
 (let ((?x1060 (ite MW_S1_V5 S1_V5_!171 V5_0)))
 (let ((?x4204 (ite MW_S2_V5 S2_V5_!176 ?x1060)))
 (let ((?x3650 (ite MW_S1_V5 S1_V5_!181 ?x4204)))
 (let (($x3518 (not R_S2_V5)))
 (let ((?x6030 (ite MW_S1_V4 S1_V4_!160 V4_0)))
 (let ((?x974 (ite MW_S1_V4 S1_V4_!170 V4_0)))
 (let ((?x2761 (ite MW_S2_V4 S2_V4_!175 ?x974)))
 (let ((?x1822 (ite MW_S1_V4 S1_V4_!180 ?x2761)))
 (let (($x5984 (not R_S2_V4)))
 (let (($x2072 (and (or $x5984 (= ?x1822 ?x6030)) (or $x3518 (= ?x3650 ?x3377)) $x2038 (or $x2233 (= ?x1694 ?x5420)) (or (not R_S2_V1) (= ?x1605 ?x3528)))))
 (let (($x3661 (not $x2072)))
 (let ((?x1428 (ite MW_S1_V2 S1_V2_!172 V2_0)))
 (let ((?x2155 (ite MW_S2_V2 S2_V2_!177 ?x1428)))
 (let ((?x4753 (ite MW_S1_V2 S1_V2_!182 ?x2155)))
 (let (($x4966 (and (or $x5984 (= ?x974 ?x1822)) (or $x3518 (= ?x1060 ?x3650)) (or $x1769 (= ?x1428 ?x4753)) (or $x2233 (= ?x1731 ?x1694)) (or (not R_S2_V1) (= ?x4996 ?x1605)))))
 (let (($x2102 (not $x4966)))
 (let (($x5049 (= S2_V3_!178 S2_V3_!168)))
 (let (($x2477 (and (or $x5984 (= ?x974 ?x6030)) (or $x3518 (= ?x1060 ?x3377)) (or $x1769 (= ?x1428 ?x4825)) (or $x2233 (= ?x1731 ?x5420)) (or (not R_S2_V1) (= ?x4996 ?x3528)))))
 (let (($x2425 (not $x2477)))
 (let (($x6049 (= S2_V2_!187 S2_V2_!177)))
 (let (($x2429 (and (or $x5984 (= ?x1822 ?x974)) (or $x3518 (= ?x3650 ?x1060)) (or $x1769 (= ?x4753 ?x1428)) (or $x2233 (= ?x1694 ?x1731)) (or (not R_S2_V1) (= ?x1605 ?x4996)))))
 (let (($x5389 (not $x2429)))
 (let (($x5761 (and (or $x5984 (= ?x6030 ?x1822)) (or $x3518 (= ?x3377 ?x3650)) (or $x1769 (= ?x4825 ?x4753)) (or $x2233 (= ?x5420 ?x1694)) (or (not R_S2_V1) (= ?x3528 ?x1605)))))
 (let (($x2977 (not $x5761)))
 (let (($x2379 (= S2_V1_!169 S2_V1_!179)))
 (let (($x326 (and (or $x5984 (= ?x6030 ?x974)) (or $x3518 (= ?x3377 ?x1060)) (or $x1769 (= ?x4825 ?x1428)) (or $x2233 (= ?x5420 ?x1731)) (or (not R_S2_V1) (= ?x3528 ?x4996)))))
 (let (($x91 (not $x326)))
 (let (($x3396 (= S1_V2_!162 S1_V2_!172)))
 (let (($x2674 (= S1_V3_!163 S1_V3_!173)))
 (let (($x866 (and (= S1_V4_!160 S1_V4_!170) (or $x803 (= S1_V4_!160 S1_V4_!180)) (or $x803 (= S1_V4_!170 S1_V4_!180)) (or $x2425 (= S2_V4_!175 S2_V4_!165)) (or $x2102 (= S2_V4_!175 S2_V4_!185)) (or $x3661 (= S2_V4_!185 S2_V4_!165)) (or $x91 (= S2_V5_!166 S2_V5_!176)) (or $x2977 (= S2_V5_!166 S2_V5_!186)) (or $x5389 (= S2_V5_!186 S2_V5_!176)) (= S1_V1_!164 S1_V1_!174) (or $x2563 (= S1_V1_!184 S1_V1_!164)) (or $x2563 (= S1_V1_!184 S1_V1_!174)) $x2674 (or $x803 (= S1_V3_!163 S1_V3_!183)) (or $x803 (= S1_V3_!173 S1_V3_!183)) $x3396 (or $x803 (= S1_V2_!162 S1_V2_!182)) (or $x803 (= S1_V2_!172 S1_V2_!182)) (or $x91 $x2379) (or $x2977 (= S2_V1_!169 S2_V1_!189)) (or $x5389 (= S2_V1_!189 S2_V1_!179)) (or $x2425 (= S2_V2_!177 S2_V2_!167)) (or $x3661 (= S2_V2_!187 S2_V2_!167)) (or $x5389 $x6049) (or $x2425 $x5049) (or $x2102 (= S2_V3_!178 S2_V3_!188)) (or $x3661 (= S2_V3_!188 S2_V3_!168)) (= S1_V5_!161 S1_V5_!171) (or $x803 (= S1_V5_!161 S1_V5_!181)) (or $x2563 $x2733) (or (not MW_S1_V4) W_S1_V4) (or (not MW_S1_V5) W_S1_V5) (or (not MW_S1_V2) W_S1_V2) (or (not MW_S1_V1) W_S1_V1) (or (not MW_S2_V5) W_S2_V5) (or (not MW_S2_V2) W_S2_V2) (or (not MW_S2_V3) W_S2_V3) (or (not MW_S2_V1) W_S2_V1))))
 (or (not $x866) (not $x2903) (and $x3104 $x1912 $x2249 $x4112 (= ?x2012 (ite MW_S2_V1 S2_V1_!189 ?x1605))))))))))))))))))))))))))))))))))))))))))))))))))))))))))))))
 )
 )
 )
 )
 )
 )
 )
 )
 )
 )
 )
 )
 )
 )
 )
 )
 )
 )
 )
 )
 )
 )
 )
 )
 )
 )
 )
 )
 )
 )
 )
 )
 )
 )
 )
 )
 )
 )
 )
 )
 )
 )
 )
 )
 ))
 (let (($x274 (and W_S2_V1 R_S2_V1)))
 (let (($x2279 (and W_S2_V3 R_S2_V3)))
 (let (($x6034 (and W_S2_V2 R_S2_V2)))
 (let (($x4164 (and W_S2_V5 R_S2_V5)))
 (let (($x5014 (= DISJ_W_S2_R_S2 (not (or R_S2_V4 $x4164 $x6034 $x2279 $x274)))))
 (let (($x1716 (and W_S2_V1 R_S1_V1)))
 (let (($x3173 (and W_S2_V3 R_S1_V3)))
 (let (($x1276 (and W_S2_V2 R_S1_V2)))
 (let (($x3308 (and W_S2_V5 R_S1_V5)))
 (let (($x3411 (= DISJ_W_S2_R_S1 (not (or R_S1_V4 $x3308 $x1276 $x3173 $x1716)))))
 (let (($x2476 (and W_S1_V1 W_S2_V1)))
 (let (($x2793 (and W_S1_V2 W_S2_V2)))
 (let (($x5855 (and W_S1_V5 W_S2_V5)))
 (let (($x4175 (= DISJ_W_S1_W_S2 (not (or W_S1_V4 $x5855 $x2793 W_S2_V3 $x2476)))))
 (let (($x2797 (and W_S1_V1 R_S2_V1)))
 (let (($x2124 (and W_S1_V2 R_S2_V2)))
 (let (($x3842 (and W_S1_V5 R_S2_V5)))
 (let (($x3466 (and W_S1_V4 R_S2_V4)))
 (let (($x3223 (= DISJ_W_S1_R_S2 (not (or $x3466 $x3842 $x2124 R_S2_V3 $x2797)))))
 (let (($x4268 (and W_S1_V1 R_S1_V1)))
 (let (($x871 (and W_S1_V2 R_S1_V2)))
 (let (($x1659 (and W_S1_V5 R_S1_V5)))
 (let (($x3624 (and W_S1_V4 R_S1_V4)))
 (let (($x455 (= DISJ_W_S1_R_S1 (not (or $x3624 $x1659 $x871 R_S1_V3 $x4268)))))
 (and W_S1_V3 W_S2_V4 $x455 $x3223 $x4175 $x3411 $x5014 $x870)))))))))))))))))))))))))))
(check-sat)
